c This graph is produced by Sof A. Lee
c Experiment on graph colouring using phase coupled oscillators
c Date: 17/02/2008 11:25:14 PM
p edge 12 24
e 1 10e 1 6e 1 5e 2 5e 2 3e 2 10e 2 8e 3 11e 3 8e 3 5e 3 4e 3 12e 4 7e 4 9e 4 6e 4 11e 4 5e 5 6e 5 10e 6 7e 7 9e 8 12e 9 11e 11 12
